% File represents an instance of a Composite Structure problem to be solved by a CP framework
% Created on 2025-03-26 10:41:58.844
T = 58;
n = 36;
m = 60;
edges = [(2, 1),
(7, 8),
(14, 13),
(20, 19),
(26, 25),
(31, 32),
(2, 3),
(9, 8),
(14, 15),
(21, 20),
(26, 27),
(32, 33),
(4, 3),
(9, 10),
(16, 15),
(21, 22),
(28, 27),
(34, 33),
(5, 4),
(11, 10),
(17, 16),
(23, 22),
(28, 29),
(34, 35),
(6, 5),
(12, 11),
(17, 18),
(23, 24),
(29, 30),
(35, 36),
(7, 1),
(13, 7),
(13, 19),
(25, 19),
(31, 25),
(2, 8),
(14, 8),
(14, 20),
(26, 20),
(26, 32),
(9, 3),
(9, 15),
(21, 15),
(21, 27),
(27, 33),
(4, 10),
(16, 10),
(16, 22),
(28, 22),
(28, 34),
(5, 11),
(17, 11),
(17, 23),
(23, 29),
(29, 35),
(6, 12),
(12, 18),
(18, 24),
(24, 30),
(30, 36)];
counts = [|8, 18, 8, 12,
|8, 24, 8, 12,
|6, 24, 6, 12,
|6, 24, 6, 16,
|8, 24, 8, 16,
|8, 26, 8, 16,
|8, 22, 8, 14,
|8, 22, 8, 12,
|8, 24, 8, 14,
|6, 24, 6, 12,
|6, 24, 6, 14,
|8, 26, 8, 14,
|8, 22, 8, 16,
|8, 22, 8, 18,
|8, 22, 8, 12,
|8, 24, 8, 14,
|8, 26, 8, 14,
|8, 24, 8, 14,
|8, 16, 8, 16,
|8, 18, 8, 16,
|8, 22, 8, 18,
|8, 22, 8, 14,
|8, 24, 8, 14,
|6, 24, 6, 14,
|8, 20, 8, 16,
|8, 24, 8, 16,
|8, 20, 8, 16,
|8, 22, 8, 16,
|6, 22, 6, 14,
|4, 22, 4, 14,
|8, 20, 8, 18,
|8, 20, 8, 14,
|6, 20, 6, 14,
|6, 22, 6, 14,
|6, 18, 6, 14,
|4, 18, 4, 12|];
